c *********************************
c * Circuit generated by BenCGen
c *
c * Magnitude_51
c *
c * Ports with 1 gate(s): 53
c * Ports with 2 gate(s): 105
c * Ports with 3 gate(s): 1
c * Ports with 4 gate(s): 1
c * Ports with 5 gate(s): 1
c * Ports with 6 gate(s): 1
c * Ports with 7 gate(s): 1
c * Ports with 8 gate(s): 1
c * Ports with 9 gate(s): 1
c * Ports with 10 gate(s): 1
c * Ports with 11 gate(s): 1
c * Ports with 12 gate(s): 1
c * Ports with 13 gate(s): 1
c * Ports with 14 gate(s): 1
c * Ports with 15 gate(s): 1
c * Ports with 16 gate(s): 1
c * Ports with 17 gate(s): 1
c * Ports with 18 gate(s): 1
c * Ports with 19 gate(s): 1
c * Ports with 20 gate(s): 1
c * Ports with 21 gate(s): 1
c * Ports with 22 gate(s): 1
c * Ports with 23 gate(s): 1
c * Ports with 24 gate(s): 1
c * Ports with 25 gate(s): 1
c * Ports with 26 gate(s): 1
c * Ports with 27 gate(s): 1
c * Ports with 28 gate(s): 1
c * Ports with 29 gate(s): 1
c * Ports with 30 gate(s): 1
c * Ports with 31 gate(s): 1
c * Ports with 32 gate(s): 1
c * Ports with 33 gate(s): 1
c * Ports with 34 gate(s): 1
c * Ports with 35 gate(s): 1
c * Ports with 36 gate(s): 1
c * Ports with 37 gate(s): 1
c * Ports with 38 gate(s): 1
c * Ports with 39 gate(s): 1
c * Ports with 40 gate(s): 1
c * Ports with 41 gate(s): 1
c * Ports with 42 gate(s): 1
c * Ports with 43 gate(s): 1
c * Ports with 44 gate(s): 1
c * Ports with 45 gate(s): 1
c * Ports with 46 gate(s): 1
c * Ports with 47 gate(s): 1
c * Ports with 48 gate(s): 1
c * Ports with 49 gate(s): 1
c * Ports with 50 gate(s): 1
c * Ports with 51 gate(s): 3
c * Total gates: 209
c *********************************
p cnf 311 1948
1 107 0
-1 -107 0
1 -106 0
107 -106 0
-1 -107 106 0
52 108 0
-52 -108 0
53 109 0
-53 -109 0
54 110 0
-54 -110 0
55 111 0
-55 -111 0
56 112 0
-56 -112 0
57 113 0
-57 -113 0
58 114 0
-58 -114 0
59 115 0
-59 -115 0
60 116 0
-60 -116 0
61 117 0
-61 -117 0
62 118 0
-62 -118 0
63 119 0
-63 -119 0
64 120 0
-64 -120 0
65 121 0
-65 -121 0
66 122 0
-66 -122 0
67 123 0
-67 -123 0
68 124 0
-68 -124 0
69 125 0
-69 -125 0
70 126 0
-70 -126 0
71 127 0
-71 -127 0
72 128 0
-72 -128 0
73 129 0
-73 -129 0
74 130 0
-74 -130 0
75 131 0
-75 -131 0
76 132 0
-76 -132 0
77 133 0
-77 -133 0
78 134 0
-78 -134 0
79 135 0
-79 -135 0
80 136 0
-80 -136 0
81 137 0
-81 -137 0
82 138 0
-82 -138 0
83 139 0
-83 -139 0
84 140 0
-84 -140 0
85 141 0
-85 -141 0
86 142 0
-86 -142 0
87 143 0
-87 -143 0
88 144 0
-88 -144 0
89 145 0
-89 -145 0
90 146 0
-90 -146 0
91 147 0
-91 -147 0
92 148 0
-92 -148 0
93 149 0
-93 -149 0
94 150 0
-94 -150 0
95 151 0
-95 -151 0
96 152 0
-96 -152 0
97 153 0
-97 -153 0
98 154 0
-98 -154 0
99 155 0
-99 -155 0
100 156 0
-100 -156 0
101 157 0
-101 -157 0
102 158 0
-102 -158 0
1 52 210 0
-1 52 -210 0
1 -52 -210 0
-1 -52 210 0
1 -159 0
108 -159 0
-1 -108 159 0
2 53 211 0
-2 53 -211 0
2 -53 -211 0
-2 -53 211 0
2 -160 0
109 -160 0
-2 -109 160 0
3 54 212 0
-3 54 -212 0
3 -54 -212 0
-3 -54 212 0
3 -161 0
110 -161 0
-3 -110 161 0
4 55 213 0
-4 55 -213 0
4 -55 -213 0
-4 -55 213 0
4 -162 0
111 -162 0
-4 -111 162 0
5 56 214 0
-5 56 -214 0
5 -56 -214 0
-5 -56 214 0
5 -163 0
112 -163 0
-5 -112 163 0
6 57 215 0
-6 57 -215 0
6 -57 -215 0
-6 -57 215 0
6 -164 0
113 -164 0
-6 -113 164 0
7 58 216 0
-7 58 -216 0
7 -58 -216 0
-7 -58 216 0
7 -165 0
114 -165 0
-7 -114 165 0
8 59 217 0
-8 59 -217 0
8 -59 -217 0
-8 -59 217 0
8 -166 0
115 -166 0
-8 -115 166 0
9 60 218 0
-9 60 -218 0
9 -60 -218 0
-9 -60 218 0
9 -167 0
116 -167 0
-9 -116 167 0
10 61 219 0
-10 61 -219 0
10 -61 -219 0
-10 -61 219 0
10 -168 0
117 -168 0
-10 -117 168 0
11 62 220 0
-11 62 -220 0
11 -62 -220 0
-11 -62 220 0
11 -169 0
118 -169 0
-11 -118 169 0
12 63 221 0
-12 63 -221 0
12 -63 -221 0
-12 -63 221 0
12 -170 0
119 -170 0
-12 -119 170 0
13 64 222 0
-13 64 -222 0
13 -64 -222 0
-13 -64 222 0
13 -171 0
120 -171 0
-13 -120 171 0
14 65 223 0
-14 65 -223 0
14 -65 -223 0
-14 -65 223 0
14 -172 0
121 -172 0
-14 -121 172 0
15 66 224 0
-15 66 -224 0
15 -66 -224 0
-15 -66 224 0
15 -173 0
122 -173 0
-15 -122 173 0
16 67 225 0
-16 67 -225 0
16 -67 -225 0
-16 -67 225 0
16 -174 0
123 -174 0
-16 -123 174 0
17 68 226 0
-17 68 -226 0
17 -68 -226 0
-17 -68 226 0
17 -175 0
124 -175 0
-17 -124 175 0
18 69 227 0
-18 69 -227 0
18 -69 -227 0
-18 -69 227 0
18 -176 0
125 -176 0
-18 -125 176 0
19 70 228 0
-19 70 -228 0
19 -70 -228 0
-19 -70 228 0
19 -177 0
126 -177 0
-19 -126 177 0
20 71 229 0
-20 71 -229 0
20 -71 -229 0
-20 -71 229 0
20 -178 0
127 -178 0
-20 -127 178 0
21 72 230 0
-21 72 -230 0
21 -72 -230 0
-21 -72 230 0
21 -179 0
128 -179 0
-21 -128 179 0
22 73 231 0
-22 73 -231 0
22 -73 -231 0
-22 -73 231 0
22 -180 0
129 -180 0
-22 -129 180 0
23 74 232 0
-23 74 -232 0
23 -74 -232 0
-23 -74 232 0
23 -181 0
130 -181 0
-23 -130 181 0
24 75 233 0
-24 75 -233 0
24 -75 -233 0
-24 -75 233 0
24 -182 0
131 -182 0
-24 -131 182 0
25 76 234 0
-25 76 -234 0
25 -76 -234 0
-25 -76 234 0
25 -183 0
132 -183 0
-25 -132 183 0
26 77 235 0
-26 77 -235 0
26 -77 -235 0
-26 -77 235 0
26 -184 0
133 -184 0
-26 -133 184 0
27 78 236 0
-27 78 -236 0
27 -78 -236 0
-27 -78 236 0
27 -185 0
134 -185 0
-27 -134 185 0
28 79 237 0
-28 79 -237 0
28 -79 -237 0
-28 -79 237 0
28 -186 0
135 -186 0
-28 -135 186 0
29 80 238 0
-29 80 -238 0
29 -80 -238 0
-29 -80 238 0
29 -187 0
136 -187 0
-29 -136 187 0
30 81 239 0
-30 81 -239 0
30 -81 -239 0
-30 -81 239 0
30 -188 0
137 -188 0
-30 -137 188 0
31 82 240 0
-31 82 -240 0
31 -82 -240 0
-31 -82 240 0
31 -189 0
138 -189 0
-31 -138 189 0
32 83 241 0
-32 83 -241 0
32 -83 -241 0
-32 -83 241 0
32 -190 0
139 -190 0
-32 -139 190 0
33 84 242 0
-33 84 -242 0
33 -84 -242 0
-33 -84 242 0
33 -191 0
140 -191 0
-33 -140 191 0
34 85 243 0
-34 85 -243 0
34 -85 -243 0
-34 -85 243 0
34 -192 0
141 -192 0
-34 -141 192 0
35 86 244 0
-35 86 -244 0
35 -86 -244 0
-35 -86 244 0
35 -193 0
142 -193 0
-35 -142 193 0
36 87 245 0
-36 87 -245 0
36 -87 -245 0
-36 -87 245 0
36 -194 0
143 -194 0
-36 -143 194 0
37 88 246 0
-37 88 -246 0
37 -88 -246 0
-37 -88 246 0
37 -195 0
144 -195 0
-37 -144 195 0
38 89 247 0
-38 89 -247 0
38 -89 -247 0
-38 -89 247 0
38 -196 0
145 -196 0
-38 -145 196 0
39 90 248 0
-39 90 -248 0
39 -90 -248 0
-39 -90 248 0
39 -197 0
146 -197 0
-39 -146 197 0
40 91 249 0
-40 91 -249 0
40 -91 -249 0
-40 -91 249 0
40 -198 0
147 -198 0
-40 -147 198 0
41 92 250 0
-41 92 -250 0
41 -92 -250 0
-41 -92 250 0
41 -199 0
148 -199 0
-41 -148 199 0
42 93 251 0
-42 93 -251 0
42 -93 -251 0
-42 -93 251 0
42 -200 0
149 -200 0
-42 -149 200 0
43 94 252 0
-43 94 -252 0
43 -94 -252 0
-43 -94 252 0
43 -201 0
150 -201 0
-43 -150 201 0
44 95 253 0
-44 95 -253 0
44 -95 -253 0
-44 -95 253 0
44 -202 0
151 -202 0
-44 -151 202 0
45 96 254 0
-45 96 -254 0
45 -96 -254 0
-45 -96 254 0
45 -203 0
152 -203 0
-45 -152 203 0
46 97 255 0
-46 97 -255 0
46 -97 -255 0
-46 -97 255 0
46 -204 0
153 -204 0
-46 -153 204 0
47 98 256 0
-47 98 -256 0
47 -98 -256 0
-47 -98 256 0
47 -205 0
154 -205 0
-47 -154 205 0
48 99 257 0
-48 99 -257 0
48 -99 -257 0
-48 -99 257 0
48 -206 0
155 -206 0
-48 -155 206 0
49 100 258 0
-49 100 -258 0
49 -100 -258 0
-49 -100 258 0
49 -207 0
156 -207 0
-49 -156 207 0
50 101 259 0
-50 101 -259 0
50 -101 -259 0
-50 -101 259 0
50 -208 0
157 -208 0
-50 -157 208 0
51 102 260 0
-51 102 -260 0
51 -102 -260 0
-51 -102 260 0
51 -209 0
158 -209 0
-51 -158 209 0
159 -261 0
211 -261 0
212 -261 0
213 -261 0
214 -261 0
215 -261 0
216 -261 0
217 -261 0
218 -261 0
219 -261 0
220 -261 0
221 -261 0
222 -261 0
223 -261 0
224 -261 0
225 -261 0
226 -261 0
227 -261 0
228 -261 0
229 -261 0
230 -261 0
231 -261 0
232 -261 0
233 -261 0
234 -261 0
235 -261 0
236 -261 0
237 -261 0
238 -261 0
239 -261 0
240 -261 0
241 -261 0
242 -261 0
243 -261 0
244 -261 0
245 -261 0
246 -261 0
247 -261 0
248 -261 0
249 -261 0
250 -261 0
251 -261 0
252 -261 0
253 -261 0
254 -261 0
255 -261 0
256 -261 0
257 -261 0
258 -261 0
259 -261 0
260 -261 0
-159 -211 -212 -213 -214 -215 -216 -217 -218 -219 -220 -221 -222 -223 -224 -225 -226 -227 -228 -229 -230 -231 -232 -233 -234 -235 -236 -237 -238 -239 -240 -241 -242 -243 -244 -245 -246 -247 -248 -249 -250 -251 -252 -253 -254 -255 -256 -257 -258 -259 -260 261 0
160 -262 0
212 -262 0
213 -262 0
214 -262 0
215 -262 0
216 -262 0
217 -262 0
218 -262 0
219 -262 0
220 -262 0
221 -262 0
222 -262 0
223 -262 0
224 -262 0
225 -262 0
226 -262 0
227 -262 0
228 -262 0
229 -262 0
230 -262 0
231 -262 0
232 -262 0
233 -262 0
234 -262 0
235 -262 0
236 -262 0
237 -262 0
238 -262 0
239 -262 0
240 -262 0
241 -262 0
242 -262 0
243 -262 0
244 -262 0
245 -262 0
246 -262 0
247 -262 0
248 -262 0
249 -262 0
250 -262 0
251 -262 0
252 -262 0
253 -262 0
254 -262 0
255 -262 0
256 -262 0
257 -262 0
258 -262 0
259 -262 0
260 -262 0
-160 -212 -213 -214 -215 -216 -217 -218 -219 -220 -221 -222 -223 -224 -225 -226 -227 -228 -229 -230 -231 -232 -233 -234 -235 -236 -237 -238 -239 -240 -241 -242 -243 -244 -245 -246 -247 -248 -249 -250 -251 -252 -253 -254 -255 -256 -257 -258 -259 -260 262 0
161 -263 0
213 -263 0
214 -263 0
215 -263 0
216 -263 0
217 -263 0
218 -263 0
219 -263 0
220 -263 0
221 -263 0
222 -263 0
223 -263 0
224 -263 0
225 -263 0
226 -263 0
227 -263 0
228 -263 0
229 -263 0
230 -263 0
231 -263 0
232 -263 0
233 -263 0
234 -263 0
235 -263 0
236 -263 0
237 -263 0
238 -263 0
239 -263 0
240 -263 0
241 -263 0
242 -263 0
243 -263 0
244 -263 0
245 -263 0
246 -263 0
247 -263 0
248 -263 0
249 -263 0
250 -263 0
251 -263 0
252 -263 0
253 -263 0
254 -263 0
255 -263 0
256 -263 0
257 -263 0
258 -263 0
259 -263 0
260 -263 0
-161 -213 -214 -215 -216 -217 -218 -219 -220 -221 -222 -223 -224 -225 -226 -227 -228 -229 -230 -231 -232 -233 -234 -235 -236 -237 -238 -239 -240 -241 -242 -243 -244 -245 -246 -247 -248 -249 -250 -251 -252 -253 -254 -255 -256 -257 -258 -259 -260 263 0
162 -264 0
214 -264 0
215 -264 0
216 -264 0
217 -264 0
218 -264 0
219 -264 0
220 -264 0
221 -264 0
222 -264 0
223 -264 0
224 -264 0
225 -264 0
226 -264 0
227 -264 0
228 -264 0
229 -264 0
230 -264 0
231 -264 0
232 -264 0
233 -264 0
234 -264 0
235 -264 0
236 -264 0
237 -264 0
238 -264 0
239 -264 0
240 -264 0
241 -264 0
242 -264 0
243 -264 0
244 -264 0
245 -264 0
246 -264 0
247 -264 0
248 -264 0
249 -264 0
250 -264 0
251 -264 0
252 -264 0
253 -264 0
254 -264 0
255 -264 0
256 -264 0
257 -264 0
258 -264 0
259 -264 0
260 -264 0
-162 -214 -215 -216 -217 -218 -219 -220 -221 -222 -223 -224 -225 -226 -227 -228 -229 -230 -231 -232 -233 -234 -235 -236 -237 -238 -239 -240 -241 -242 -243 -244 -245 -246 -247 -248 -249 -250 -251 -252 -253 -254 -255 -256 -257 -258 -259 -260 264 0
163 -265 0
215 -265 0
216 -265 0
217 -265 0
218 -265 0
219 -265 0
220 -265 0
221 -265 0
222 -265 0
223 -265 0
224 -265 0
225 -265 0
226 -265 0
227 -265 0
228 -265 0
229 -265 0
230 -265 0
231 -265 0
232 -265 0
233 -265 0
234 -265 0
235 -265 0
236 -265 0
237 -265 0
238 -265 0
239 -265 0
240 -265 0
241 -265 0
242 -265 0
243 -265 0
244 -265 0
245 -265 0
246 -265 0
247 -265 0
248 -265 0
249 -265 0
250 -265 0
251 -265 0
252 -265 0
253 -265 0
254 -265 0
255 -265 0
256 -265 0
257 -265 0
258 -265 0
259 -265 0
260 -265 0
-163 -215 -216 -217 -218 -219 -220 -221 -222 -223 -224 -225 -226 -227 -228 -229 -230 -231 -232 -233 -234 -235 -236 -237 -238 -239 -240 -241 -242 -243 -244 -245 -246 -247 -248 -249 -250 -251 -252 -253 -254 -255 -256 -257 -258 -259 -260 265 0
164 -266 0
216 -266 0
217 -266 0
218 -266 0
219 -266 0
220 -266 0
221 -266 0
222 -266 0
223 -266 0
224 -266 0
225 -266 0
226 -266 0
227 -266 0
228 -266 0
229 -266 0
230 -266 0
231 -266 0
232 -266 0
233 -266 0
234 -266 0
235 -266 0
236 -266 0
237 -266 0
238 -266 0
239 -266 0
240 -266 0
241 -266 0
242 -266 0
243 -266 0
244 -266 0
245 -266 0
246 -266 0
247 -266 0
248 -266 0
249 -266 0
250 -266 0
251 -266 0
252 -266 0
253 -266 0
254 -266 0
255 -266 0
256 -266 0
257 -266 0
258 -266 0
259 -266 0
260 -266 0
-164 -216 -217 -218 -219 -220 -221 -222 -223 -224 -225 -226 -227 -228 -229 -230 -231 -232 -233 -234 -235 -236 -237 -238 -239 -240 -241 -242 -243 -244 -245 -246 -247 -248 -249 -250 -251 -252 -253 -254 -255 -256 -257 -258 -259 -260 266 0
165 -267 0
217 -267 0
218 -267 0
219 -267 0
220 -267 0
221 -267 0
222 -267 0
223 -267 0
224 -267 0
225 -267 0
226 -267 0
227 -267 0
228 -267 0
229 -267 0
230 -267 0
231 -267 0
232 -267 0
233 -267 0
234 -267 0
235 -267 0
236 -267 0
237 -267 0
238 -267 0
239 -267 0
240 -267 0
241 -267 0
242 -267 0
243 -267 0
244 -267 0
245 -267 0
246 -267 0
247 -267 0
248 -267 0
249 -267 0
250 -267 0
251 -267 0
252 -267 0
253 -267 0
254 -267 0
255 -267 0
256 -267 0
257 -267 0
258 -267 0
259 -267 0
260 -267 0
-165 -217 -218 -219 -220 -221 -222 -223 -224 -225 -226 -227 -228 -229 -230 -231 -232 -233 -234 -235 -236 -237 -238 -239 -240 -241 -242 -243 -244 -245 -246 -247 -248 -249 -250 -251 -252 -253 -254 -255 -256 -257 -258 -259 -260 267 0
166 -268 0
218 -268 0
219 -268 0
220 -268 0
221 -268 0
222 -268 0
223 -268 0
224 -268 0
225 -268 0
226 -268 0
227 -268 0
228 -268 0
229 -268 0
230 -268 0
231 -268 0
232 -268 0
233 -268 0
234 -268 0
235 -268 0
236 -268 0
237 -268 0
238 -268 0
239 -268 0
240 -268 0
241 -268 0
242 -268 0
243 -268 0
244 -268 0
245 -268 0
246 -268 0
247 -268 0
248 -268 0
249 -268 0
250 -268 0
251 -268 0
252 -268 0
253 -268 0
254 -268 0
255 -268 0
256 -268 0
257 -268 0
258 -268 0
259 -268 0
260 -268 0
-166 -218 -219 -220 -221 -222 -223 -224 -225 -226 -227 -228 -229 -230 -231 -232 -233 -234 -235 -236 -237 -238 -239 -240 -241 -242 -243 -244 -245 -246 -247 -248 -249 -250 -251 -252 -253 -254 -255 -256 -257 -258 -259 -260 268 0
167 -269 0
219 -269 0
220 -269 0
221 -269 0
222 -269 0
223 -269 0
224 -269 0
225 -269 0
226 -269 0
227 -269 0
228 -269 0
229 -269 0
230 -269 0
231 -269 0
232 -269 0
233 -269 0
234 -269 0
235 -269 0
236 -269 0
237 -269 0
238 -269 0
239 -269 0
240 -269 0
241 -269 0
242 -269 0
243 -269 0
244 -269 0
245 -269 0
246 -269 0
247 -269 0
248 -269 0
249 -269 0
250 -269 0
251 -269 0
252 -269 0
253 -269 0
254 -269 0
255 -269 0
256 -269 0
257 -269 0
258 -269 0
259 -269 0
260 -269 0
-167 -219 -220 -221 -222 -223 -224 -225 -226 -227 -228 -229 -230 -231 -232 -233 -234 -235 -236 -237 -238 -239 -240 -241 -242 -243 -244 -245 -246 -247 -248 -249 -250 -251 -252 -253 -254 -255 -256 -257 -258 -259 -260 269 0
168 -270 0
220 -270 0
221 -270 0
222 -270 0
223 -270 0
224 -270 0
225 -270 0
226 -270 0
227 -270 0
228 -270 0
229 -270 0
230 -270 0
231 -270 0
232 -270 0
233 -270 0
234 -270 0
235 -270 0
236 -270 0
237 -270 0
238 -270 0
239 -270 0
240 -270 0
241 -270 0
242 -270 0
243 -270 0
244 -270 0
245 -270 0
246 -270 0
247 -270 0
248 -270 0
249 -270 0
250 -270 0
251 -270 0
252 -270 0
253 -270 0
254 -270 0
255 -270 0
256 -270 0
257 -270 0
258 -270 0
259 -270 0
260 -270 0
-168 -220 -221 -222 -223 -224 -225 -226 -227 -228 -229 -230 -231 -232 -233 -234 -235 -236 -237 -238 -239 -240 -241 -242 -243 -244 -245 -246 -247 -248 -249 -250 -251 -252 -253 -254 -255 -256 -257 -258 -259 -260 270 0
169 -271 0
221 -271 0
222 -271 0
223 -271 0
224 -271 0
225 -271 0
226 -271 0
227 -271 0
228 -271 0
229 -271 0
230 -271 0
231 -271 0
232 -271 0
233 -271 0
234 -271 0
235 -271 0
236 -271 0
237 -271 0
238 -271 0
239 -271 0
240 -271 0
241 -271 0
242 -271 0
243 -271 0
244 -271 0
245 -271 0
246 -271 0
247 -271 0
248 -271 0
249 -271 0
250 -271 0
251 -271 0
252 -271 0
253 -271 0
254 -271 0
255 -271 0
256 -271 0
257 -271 0
258 -271 0
259 -271 0
260 -271 0
-169 -221 -222 -223 -224 -225 -226 -227 -228 -229 -230 -231 -232 -233 -234 -235 -236 -237 -238 -239 -240 -241 -242 -243 -244 -245 -246 -247 -248 -249 -250 -251 -252 -253 -254 -255 -256 -257 -258 -259 -260 271 0
170 -272 0
222 -272 0
223 -272 0
224 -272 0
225 -272 0
226 -272 0
227 -272 0
228 -272 0
229 -272 0
230 -272 0
231 -272 0
232 -272 0
233 -272 0
234 -272 0
235 -272 0
236 -272 0
237 -272 0
238 -272 0
239 -272 0
240 -272 0
241 -272 0
242 -272 0
243 -272 0
244 -272 0
245 -272 0
246 -272 0
247 -272 0
248 -272 0
249 -272 0
250 -272 0
251 -272 0
252 -272 0
253 -272 0
254 -272 0
255 -272 0
256 -272 0
257 -272 0
258 -272 0
259 -272 0
260 -272 0
-170 -222 -223 -224 -225 -226 -227 -228 -229 -230 -231 -232 -233 -234 -235 -236 -237 -238 -239 -240 -241 -242 -243 -244 -245 -246 -247 -248 -249 -250 -251 -252 -253 -254 -255 -256 -257 -258 -259 -260 272 0
171 -273 0
223 -273 0
224 -273 0
225 -273 0
226 -273 0
227 -273 0
228 -273 0
229 -273 0
230 -273 0
231 -273 0
232 -273 0
233 -273 0
234 -273 0
235 -273 0
236 -273 0
237 -273 0
238 -273 0
239 -273 0
240 -273 0
241 -273 0
242 -273 0
243 -273 0
244 -273 0
245 -273 0
246 -273 0
247 -273 0
248 -273 0
249 -273 0
250 -273 0
251 -273 0
252 -273 0
253 -273 0
254 -273 0
255 -273 0
256 -273 0
257 -273 0
258 -273 0
259 -273 0
260 -273 0
-171 -223 -224 -225 -226 -227 -228 -229 -230 -231 -232 -233 -234 -235 -236 -237 -238 -239 -240 -241 -242 -243 -244 -245 -246 -247 -248 -249 -250 -251 -252 -253 -254 -255 -256 -257 -258 -259 -260 273 0
172 -274 0
224 -274 0
225 -274 0
226 -274 0
227 -274 0
228 -274 0
229 -274 0
230 -274 0
231 -274 0
232 -274 0
233 -274 0
234 -274 0
235 -274 0
236 -274 0
237 -274 0
238 -274 0
239 -274 0
240 -274 0
241 -274 0
242 -274 0
243 -274 0
244 -274 0
245 -274 0
246 -274 0
247 -274 0
248 -274 0
249 -274 0
250 -274 0
251 -274 0
252 -274 0
253 -274 0
254 -274 0
255 -274 0
256 -274 0
257 -274 0
258 -274 0
259 -274 0
260 -274 0
-172 -224 -225 -226 -227 -228 -229 -230 -231 -232 -233 -234 -235 -236 -237 -238 -239 -240 -241 -242 -243 -244 -245 -246 -247 -248 -249 -250 -251 -252 -253 -254 -255 -256 -257 -258 -259 -260 274 0
173 -275 0
225 -275 0
226 -275 0
227 -275 0
228 -275 0
229 -275 0
230 -275 0
231 -275 0
232 -275 0
233 -275 0
234 -275 0
235 -275 0
236 -275 0
237 -275 0
238 -275 0
239 -275 0
240 -275 0
241 -275 0
242 -275 0
243 -275 0
244 -275 0
245 -275 0
246 -275 0
247 -275 0
248 -275 0
249 -275 0
250 -275 0
251 -275 0
252 -275 0
253 -275 0
254 -275 0
255 -275 0
256 -275 0
257 -275 0
258 -275 0
259 -275 0
260 -275 0
-173 -225 -226 -227 -228 -229 -230 -231 -232 -233 -234 -235 -236 -237 -238 -239 -240 -241 -242 -243 -244 -245 -246 -247 -248 -249 -250 -251 -252 -253 -254 -255 -256 -257 -258 -259 -260 275 0
174 -276 0
226 -276 0
227 -276 0
228 -276 0
229 -276 0
230 -276 0
231 -276 0
232 -276 0
233 -276 0
234 -276 0
235 -276 0
236 -276 0
237 -276 0
238 -276 0
239 -276 0
240 -276 0
241 -276 0
242 -276 0
243 -276 0
244 -276 0
245 -276 0
246 -276 0
247 -276 0
248 -276 0
249 -276 0
250 -276 0
251 -276 0
252 -276 0
253 -276 0
254 -276 0
255 -276 0
256 -276 0
257 -276 0
258 -276 0
259 -276 0
260 -276 0
-174 -226 -227 -228 -229 -230 -231 -232 -233 -234 -235 -236 -237 -238 -239 -240 -241 -242 -243 -244 -245 -246 -247 -248 -249 -250 -251 -252 -253 -254 -255 -256 -257 -258 -259 -260 276 0
175 -277 0
227 -277 0
228 -277 0
229 -277 0
230 -277 0
231 -277 0
232 -277 0
233 -277 0
234 -277 0
235 -277 0
236 -277 0
237 -277 0
238 -277 0
239 -277 0
240 -277 0
241 -277 0
242 -277 0
243 -277 0
244 -277 0
245 -277 0
246 -277 0
247 -277 0
248 -277 0
249 -277 0
250 -277 0
251 -277 0
252 -277 0
253 -277 0
254 -277 0
255 -277 0
256 -277 0
257 -277 0
258 -277 0
259 -277 0
260 -277 0
-175 -227 -228 -229 -230 -231 -232 -233 -234 -235 -236 -237 -238 -239 -240 -241 -242 -243 -244 -245 -246 -247 -248 -249 -250 -251 -252 -253 -254 -255 -256 -257 -258 -259 -260 277 0
176 -278 0
228 -278 0
229 -278 0
230 -278 0
231 -278 0
232 -278 0
233 -278 0
234 -278 0
235 -278 0
236 -278 0
237 -278 0
238 -278 0
239 -278 0
240 -278 0
241 -278 0
242 -278 0
243 -278 0
244 -278 0
245 -278 0
246 -278 0
247 -278 0
248 -278 0
249 -278 0
250 -278 0
251 -278 0
252 -278 0
253 -278 0
254 -278 0
255 -278 0
256 -278 0
257 -278 0
258 -278 0
259 -278 0
260 -278 0
-176 -228 -229 -230 -231 -232 -233 -234 -235 -236 -237 -238 -239 -240 -241 -242 -243 -244 -245 -246 -247 -248 -249 -250 -251 -252 -253 -254 -255 -256 -257 -258 -259 -260 278 0
177 -279 0
229 -279 0
230 -279 0
231 -279 0
232 -279 0
233 -279 0
234 -279 0
235 -279 0
236 -279 0
237 -279 0
238 -279 0
239 -279 0
240 -279 0
241 -279 0
242 -279 0
243 -279 0
244 -279 0
245 -279 0
246 -279 0
247 -279 0
248 -279 0
249 -279 0
250 -279 0
251 -279 0
252 -279 0
253 -279 0
254 -279 0
255 -279 0
256 -279 0
257 -279 0
258 -279 0
259 -279 0
260 -279 0
-177 -229 -230 -231 -232 -233 -234 -235 -236 -237 -238 -239 -240 -241 -242 -243 -244 -245 -246 -247 -248 -249 -250 -251 -252 -253 -254 -255 -256 -257 -258 -259 -260 279 0
178 -280 0
230 -280 0
231 -280 0
232 -280 0
233 -280 0
234 -280 0
235 -280 0
236 -280 0
237 -280 0
238 -280 0
239 -280 0
240 -280 0
241 -280 0
242 -280 0
243 -280 0
244 -280 0
245 -280 0
246 -280 0
247 -280 0
248 -280 0
249 -280 0
250 -280 0
251 -280 0
252 -280 0
253 -280 0
254 -280 0
255 -280 0
256 -280 0
257 -280 0
258 -280 0
259 -280 0
260 -280 0
-178 -230 -231 -232 -233 -234 -235 -236 -237 -238 -239 -240 -241 -242 -243 -244 -245 -246 -247 -248 -249 -250 -251 -252 -253 -254 -255 -256 -257 -258 -259 -260 280 0
179 -281 0
231 -281 0
232 -281 0
233 -281 0
234 -281 0
235 -281 0
236 -281 0
237 -281 0
238 -281 0
239 -281 0
240 -281 0
241 -281 0
242 -281 0
243 -281 0
244 -281 0
245 -281 0
246 -281 0
247 -281 0
248 -281 0
249 -281 0
250 -281 0
251 -281 0
252 -281 0
253 -281 0
254 -281 0
255 -281 0
256 -281 0
257 -281 0
258 -281 0
259 -281 0
260 -281 0
-179 -231 -232 -233 -234 -235 -236 -237 -238 -239 -240 -241 -242 -243 -244 -245 -246 -247 -248 -249 -250 -251 -252 -253 -254 -255 -256 -257 -258 -259 -260 281 0
180 -282 0
232 -282 0
233 -282 0
234 -282 0
235 -282 0
236 -282 0
237 -282 0
238 -282 0
239 -282 0
240 -282 0
241 -282 0
242 -282 0
243 -282 0
244 -282 0
245 -282 0
246 -282 0
247 -282 0
248 -282 0
249 -282 0
250 -282 0
251 -282 0
252 -282 0
253 -282 0
254 -282 0
255 -282 0
256 -282 0
257 -282 0
258 -282 0
259 -282 0
260 -282 0
-180 -232 -233 -234 -235 -236 -237 -238 -239 -240 -241 -242 -243 -244 -245 -246 -247 -248 -249 -250 -251 -252 -253 -254 -255 -256 -257 -258 -259 -260 282 0
181 -283 0
233 -283 0
234 -283 0
235 -283 0
236 -283 0
237 -283 0
238 -283 0
239 -283 0
240 -283 0
241 -283 0
242 -283 0
243 -283 0
244 -283 0
245 -283 0
246 -283 0
247 -283 0
248 -283 0
249 -283 0
250 -283 0
251 -283 0
252 -283 0
253 -283 0
254 -283 0
255 -283 0
256 -283 0
257 -283 0
258 -283 0
259 -283 0
260 -283 0
-181 -233 -234 -235 -236 -237 -238 -239 -240 -241 -242 -243 -244 -245 -246 -247 -248 -249 -250 -251 -252 -253 -254 -255 -256 -257 -258 -259 -260 283 0
182 -284 0
234 -284 0
235 -284 0
236 -284 0
237 -284 0
238 -284 0
239 -284 0
240 -284 0
241 -284 0
242 -284 0
243 -284 0
244 -284 0
245 -284 0
246 -284 0
247 -284 0
248 -284 0
249 -284 0
250 -284 0
251 -284 0
252 -284 0
253 -284 0
254 -284 0
255 -284 0
256 -284 0
257 -284 0
258 -284 0
259 -284 0
260 -284 0
-182 -234 -235 -236 -237 -238 -239 -240 -241 -242 -243 -244 -245 -246 -247 -248 -249 -250 -251 -252 -253 -254 -255 -256 -257 -258 -259 -260 284 0
183 -285 0
235 -285 0
236 -285 0
237 -285 0
238 -285 0
239 -285 0
240 -285 0
241 -285 0
242 -285 0
243 -285 0
244 -285 0
245 -285 0
246 -285 0
247 -285 0
248 -285 0
249 -285 0
250 -285 0
251 -285 0
252 -285 0
253 -285 0
254 -285 0
255 -285 0
256 -285 0
257 -285 0
258 -285 0
259 -285 0
260 -285 0
-183 -235 -236 -237 -238 -239 -240 -241 -242 -243 -244 -245 -246 -247 -248 -249 -250 -251 -252 -253 -254 -255 -256 -257 -258 -259 -260 285 0
184 -286 0
236 -286 0
237 -286 0
238 -286 0
239 -286 0
240 -286 0
241 -286 0
242 -286 0
243 -286 0
244 -286 0
245 -286 0
246 -286 0
247 -286 0
248 -286 0
249 -286 0
250 -286 0
251 -286 0
252 -286 0
253 -286 0
254 -286 0
255 -286 0
256 -286 0
257 -286 0
258 -286 0
259 -286 0
260 -286 0
-184 -236 -237 -238 -239 -240 -241 -242 -243 -244 -245 -246 -247 -248 -249 -250 -251 -252 -253 -254 -255 -256 -257 -258 -259 -260 286 0
185 -287 0
237 -287 0
238 -287 0
239 -287 0
240 -287 0
241 -287 0
242 -287 0
243 -287 0
244 -287 0
245 -287 0
246 -287 0
247 -287 0
248 -287 0
249 -287 0
250 -287 0
251 -287 0
252 -287 0
253 -287 0
254 -287 0
255 -287 0
256 -287 0
257 -287 0
258 -287 0
259 -287 0
260 -287 0
-185 -237 -238 -239 -240 -241 -242 -243 -244 -245 -246 -247 -248 -249 -250 -251 -252 -253 -254 -255 -256 -257 -258 -259 -260 287 0
186 -288 0
238 -288 0
239 -288 0
240 -288 0
241 -288 0
242 -288 0
243 -288 0
244 -288 0
245 -288 0
246 -288 0
247 -288 0
248 -288 0
249 -288 0
250 -288 0
251 -288 0
252 -288 0
253 -288 0
254 -288 0
255 -288 0
256 -288 0
257 -288 0
258 -288 0
259 -288 0
260 -288 0
-186 -238 -239 -240 -241 -242 -243 -244 -245 -246 -247 -248 -249 -250 -251 -252 -253 -254 -255 -256 -257 -258 -259 -260 288 0
187 -289 0
239 -289 0
240 -289 0
241 -289 0
242 -289 0
243 -289 0
244 -289 0
245 -289 0
246 -289 0
247 -289 0
248 -289 0
249 -289 0
250 -289 0
251 -289 0
252 -289 0
253 -289 0
254 -289 0
255 -289 0
256 -289 0
257 -289 0
258 -289 0
259 -289 0
260 -289 0
-187 -239 -240 -241 -242 -243 -244 -245 -246 -247 -248 -249 -250 -251 -252 -253 -254 -255 -256 -257 -258 -259 -260 289 0
188 -290 0
240 -290 0
241 -290 0
242 -290 0
243 -290 0
244 -290 0
245 -290 0
246 -290 0
247 -290 0
248 -290 0
249 -290 0
250 -290 0
251 -290 0
252 -290 0
253 -290 0
254 -290 0
255 -290 0
256 -290 0
257 -290 0
258 -290 0
259 -290 0
260 -290 0
-188 -240 -241 -242 -243 -244 -245 -246 -247 -248 -249 -250 -251 -252 -253 -254 -255 -256 -257 -258 -259 -260 290 0
189 -291 0
241 -291 0
242 -291 0
243 -291 0
244 -291 0
245 -291 0
246 -291 0
247 -291 0
248 -291 0
249 -291 0
250 -291 0
251 -291 0
252 -291 0
253 -291 0
254 -291 0
255 -291 0
256 -291 0
257 -291 0
258 -291 0
259 -291 0
260 -291 0
-189 -241 -242 -243 -244 -245 -246 -247 -248 -249 -250 -251 -252 -253 -254 -255 -256 -257 -258 -259 -260 291 0
190 -292 0
242 -292 0
243 -292 0
244 -292 0
245 -292 0
246 -292 0
247 -292 0
248 -292 0
249 -292 0
250 -292 0
251 -292 0
252 -292 0
253 -292 0
254 -292 0
255 -292 0
256 -292 0
257 -292 0
258 -292 0
259 -292 0
260 -292 0
-190 -242 -243 -244 -245 -246 -247 -248 -249 -250 -251 -252 -253 -254 -255 -256 -257 -258 -259 -260 292 0
191 -293 0
243 -293 0
244 -293 0
245 -293 0
246 -293 0
247 -293 0
248 -293 0
249 -293 0
250 -293 0
251 -293 0
252 -293 0
253 -293 0
254 -293 0
255 -293 0
256 -293 0
257 -293 0
258 -293 0
259 -293 0
260 -293 0
-191 -243 -244 -245 -246 -247 -248 -249 -250 -251 -252 -253 -254 -255 -256 -257 -258 -259 -260 293 0
192 -294 0
244 -294 0
245 -294 0
246 -294 0
247 -294 0
248 -294 0
249 -294 0
250 -294 0
251 -294 0
252 -294 0
253 -294 0
254 -294 0
255 -294 0
256 -294 0
257 -294 0
258 -294 0
259 -294 0
260 -294 0
-192 -244 -245 -246 -247 -248 -249 -250 -251 -252 -253 -254 -255 -256 -257 -258 -259 -260 294 0
193 -295 0
245 -295 0
246 -295 0
247 -295 0
248 -295 0
249 -295 0
250 -295 0
251 -295 0
252 -295 0
253 -295 0
254 -295 0
255 -295 0
256 -295 0
257 -295 0
258 -295 0
259 -295 0
260 -295 0
-193 -245 -246 -247 -248 -249 -250 -251 -252 -253 -254 -255 -256 -257 -258 -259 -260 295 0
194 -296 0
246 -296 0
247 -296 0
248 -296 0
249 -296 0
250 -296 0
251 -296 0
252 -296 0
253 -296 0
254 -296 0
255 -296 0
256 -296 0
257 -296 0
258 -296 0
259 -296 0
260 -296 0
-194 -246 -247 -248 -249 -250 -251 -252 -253 -254 -255 -256 -257 -258 -259 -260 296 0
195 -297 0
247 -297 0
248 -297 0
249 -297 0
250 -297 0
251 -297 0
252 -297 0
253 -297 0
254 -297 0
255 -297 0
256 -297 0
257 -297 0
258 -297 0
259 -297 0
260 -297 0
-195 -247 -248 -249 -250 -251 -252 -253 -254 -255 -256 -257 -258 -259 -260 297 0
196 -298 0
248 -298 0
249 -298 0
250 -298 0
251 -298 0
252 -298 0
253 -298 0
254 -298 0
255 -298 0
256 -298 0
257 -298 0
258 -298 0
259 -298 0
260 -298 0
-196 -248 -249 -250 -251 -252 -253 -254 -255 -256 -257 -258 -259 -260 298 0
197 -299 0
249 -299 0
250 -299 0
251 -299 0
252 -299 0
253 -299 0
254 -299 0
255 -299 0
256 -299 0
257 -299 0
258 -299 0
259 -299 0
260 -299 0
-197 -249 -250 -251 -252 -253 -254 -255 -256 -257 -258 -259 -260 299 0
198 -300 0
250 -300 0
251 -300 0
252 -300 0
253 -300 0
254 -300 0
255 -300 0
256 -300 0
257 -300 0
258 -300 0
259 -300 0
260 -300 0
-198 -250 -251 -252 -253 -254 -255 -256 -257 -258 -259 -260 300 0
199 -301 0
251 -301 0
252 -301 0
253 -301 0
254 -301 0
255 -301 0
256 -301 0
257 -301 0
258 -301 0
259 -301 0
260 -301 0
-199 -251 -252 -253 -254 -255 -256 -257 -258 -259 -260 301 0
200 -302 0
252 -302 0
253 -302 0
254 -302 0
255 -302 0
256 -302 0
257 -302 0
258 -302 0
259 -302 0
260 -302 0
-200 -252 -253 -254 -255 -256 -257 -258 -259 -260 302 0
201 -303 0
253 -303 0
254 -303 0
255 -303 0
256 -303 0
257 -303 0
258 -303 0
259 -303 0
260 -303 0
-201 -253 -254 -255 -256 -257 -258 -259 -260 303 0
202 -304 0
254 -304 0
255 -304 0
256 -304 0
257 -304 0
258 -304 0
259 -304 0
260 -304 0
-202 -254 -255 -256 -257 -258 -259 -260 304 0
203 -305 0
255 -305 0
256 -305 0
257 -305 0
258 -305 0
259 -305 0
260 -305 0
-203 -255 -256 -257 -258 -259 -260 305 0
204 -306 0
256 -306 0
257 -306 0
258 -306 0
259 -306 0
260 -306 0
-204 -256 -257 -258 -259 -260 306 0
205 -307 0
257 -307 0
258 -307 0
259 -307 0
260 -307 0
-205 -257 -258 -259 -260 307 0
206 -308 0
258 -308 0
259 -308 0
260 -308 0
-206 -258 -259 -260 308 0
207 -309 0
259 -309 0
260 -309 0
-207 -259 -260 309 0
208 -310 0
260 -310 0
-208 -260 310 0
209 -311 0
-209 311 0
-261 103 0
-262 103 0
-263 103 0
-264 103 0
-265 103 0
-266 103 0
-267 103 0
-268 103 0
-269 103 0
-270 103 0
-271 103 0
-272 103 0
-273 103 0
-274 103 0
-275 103 0
-276 103 0
-277 103 0
-278 103 0
-279 103 0
-280 103 0
-281 103 0
-282 103 0
-283 103 0
-284 103 0
-285 103 0
-286 103 0
-287 103 0
-288 103 0
-289 103 0
-290 103 0
-291 103 0
-292 103 0
-293 103 0
-294 103 0
-295 103 0
-296 103 0
-297 103 0
-298 103 0
-299 103 0
-300 103 0
-301 103 0
-302 103 0
-303 103 0
-304 103 0
-305 103 0
-306 103 0
-307 103 0
-308 103 0
-309 103 0
-310 103 0
-311 103 0
261 262 263 264 265 266 267 268 269 270 271 272 273 274 275 276 277 278 279 280 281 282 283 284 285 286 287 288 289 290 291 292 293 294 295 296 297 298 299 300 301 302 303 304 305 306 307 308 309 310 311 -103 0
210 -104 0
211 -104 0
212 -104 0
213 -104 0
214 -104 0
215 -104 0
216 -104 0
217 -104 0
218 -104 0
219 -104 0
220 -104 0
221 -104 0
222 -104 0
223 -104 0
224 -104 0
225 -104 0
226 -104 0
227 -104 0
228 -104 0
229 -104 0
230 -104 0
231 -104 0
232 -104 0
233 -104 0
234 -104 0
235 -104 0
236 -104 0
237 -104 0
238 -104 0
239 -104 0
240 -104 0
241 -104 0
242 -104 0
243 -104 0
244 -104 0
245 -104 0
246 -104 0
247 -104 0
248 -104 0
249 -104 0
250 -104 0
251 -104 0
252 -104 0
253 -104 0
254 -104 0
255 -104 0
256 -104 0
257 -104 0
258 -104 0
259 -104 0
260 -104 0
-210 -211 -212 -213 -214 -215 -216 -217 -218 -219 -220 -221 -222 -223 -224 -225 -226 -227 -228 -229 -230 -231 -232 -233 -234 -235 -236 -237 -238 -239 -240 -241 -242 -243 -244 -245 -246 -247 -248 -249 -250 -251 -252 -253 -254 -255 -256 -257 -258 -259 -260 104 0
-103 -105 0
-104 -105 0
103 104 105 0
